0,415,85,287,150,224,222,228,503,328,396
415,0,557,419,164,252,146,408,348,158,363
85,557,0,345,208,251,262,64,553,97,279
287,419,345,0,145,105,394,148,129,411,435
150,164,208,145,0,521,299,230,297,316,410
224,252,251,105,521,0,296,428,228,332,86
222,146,262,394,299,296,0,377,449,383,138
228,408,64,148,230,428,377,0,403,52,203
503,348,553,129,297,228,449,403,0,522,305
328,158,97,411,316,332,383,52,522,0,412
396,363,279,435,410,86,138,203,305,412,0
